200
150
100
100
100
99
99
98
98
98
98
96
96
95
95
93
92
92
92
91
89
89
88
88
88
87
87
87
87
86
86
86
85
85
84
83
83
82
80
80
80
79
79
78
78
77
76
76
75
75
74
74
73
73
73
72
71
70
70
70
69
69
69
69
68
68
66
66
66
66
65
64
64
64
64
64
64
63
63
63
62
62
61
60
60
59
58
58
58
58
58
58
57
57
55
55
55
53
52
52
52
51
51
50
50
50
49
49
49
49
49
48
48
46
46
45
45
45
44
43
42
42
42
41
41
40
40
40
39
39
39
37
37
37
36
36
36
36
35
35
35
33
33
33
33
32
32
31
31
31
31
30
29
29
29
29
28
27
27
27
26
26
24
22
22
22
21
21
20
19
18
17
17
16
16
15
14
14
13
12
11
11
11
11
10
9
8
7
7
7
7
7
6
6
5
4
4
4
3
3
2
1
